; benchmark generated from python API
(set-info :status unknown)
(declare-fun x_months () (_ BitVec 32))
(declare-fun x_beta () (_ BitVec 32))
(declare-fun y_months () (_ BitVec 32))
(declare-fun y_beta () (_ BitVec 32))
(assert
 (bvsle (_ bv4294966096 32) x_months))
(assert
 (bvsge (_ bv1199 32) x_months))
(assert
 (bvsle (_ bv0 32) x_beta))
(assert
 (let ((?x19973 (bvadd x_months (_ bv24003 32))))
 (let ((?x32420 (bvsub ?x19973 (bvmul (bvsdiv (bvsub ?x19973 (_ bv1 32)) (_ bv12 32)) (_ bv12 32)))))
 (let ((?x88492 (ite (or (= ?x32420 (_ bv4 32)) (= ?x32420 (_ bv6 32)) (= ?x32420 (_ bv9 32)) (= ?x32420 (_ bv11 32))) (_ bv30 32) (_ bv31 32))))
 (let (($x31332 (and (= (bvsmod (bvsdiv (bvsub ?x19973 (_ bv1 32)) (_ bv12 32)) (_ bv4 32)) (_ bv0 32)) (and (distinct (bvsmod (bvsdiv (bvsub ?x19973 (_ bv1 32)) (_ bv12 32)) (_ bv100 32)) (_ bv0 32)) true))))
 (let ((?x13211 (ite (or $x31332 (= (bvsmod (bvsdiv (bvsub ?x19973 (_ bv1 32)) (_ bv12 32)) (_ bv400 32)) (_ bv0 32))) (_ bv29 32) (_ bv28 32))))
 (bvslt x_beta (ite (= ?x32420 (_ bv2 32)) ?x13211 ?x88492))))))))
(assert
 (bvsle (_ bv4294966096 32) y_months))
(assert
 (bvsge (_ bv1199 32) y_months))
(assert
 (bvsle (_ bv0 32) y_beta))
(assert
 (let ((?x23124 (bvadd y_months (_ bv24003 32))))
 (let ((?x55886 (bvsub ?x23124 (bvmul (bvsdiv (bvsub ?x23124 (_ bv1 32)) (_ bv12 32)) (_ bv12 32)))))
 (let ((?x7763 (ite (or (= ?x55886 (_ bv4 32)) (= ?x55886 (_ bv6 32)) (= ?x55886 (_ bv9 32)) (= ?x55886 (_ bv11 32))) (_ bv30 32) (_ bv31 32))))
 (let (($x47705 (and (= (bvsmod (bvsdiv (bvsub ?x23124 (_ bv1 32)) (_ bv12 32)) (_ bv4 32)) (_ bv0 32)) (and (distinct (bvsmod (bvsdiv (bvsub ?x23124 (_ bv1 32)) (_ bv12 32)) (_ bv100 32)) (_ bv0 32)) true))))
 (let ((?x13945 (ite (or $x47705 (= (bvsmod (bvsdiv (bvsub ?x23124 (_ bv1 32)) (_ bv12 32)) (_ bv400 32)) (_ bv0 32))) (_ bv29 32) (_ bv28 32))))
 (bvslt y_beta (ite (= ?x55886 (_ bv2 32)) ?x13945 ?x7763))))))))
(assert
 (let (($x61945 (bvsle (_ bv0 32) x_beta)))
 (or (bvsgt x_months (bvsub (bvadd (bvmul (_ bv2023 32) (_ bv12 32)) (_ bv6 32)) (_ bv24003 32))) (and (= x_months (bvsub (bvadd (bvmul (_ bv2023 32) (_ bv12 32)) (_ bv6 32)) (_ bv24003 32))) $x61945))))
(assert
 (let ((?x18939 (bvadd x_beta (_ bv1 32))))
 (let ((?x84345 (bvsdiv (bvsub (bvadd (bvadd x_months (_ bv1 32)) (_ bv24003 32)) (_ bv1 32)) (_ bv12 32))))
 (let ((?x13331 (bvadd (bvadd x_months (_ bv1 32)) (_ bv24003 32))))
 (let ((?x34027 (bvsub ?x13331 (bvmul ?x84345 (_ bv12 32)))))
 (let ((?x5420 (ite (or (= ?x34027 (_ bv4 32)) (= ?x34027 (_ bv6 32)) (= ?x34027 (_ bv9 32)) (= ?x34027 (_ bv11 32))) (_ bv30 32) (_ bv31 32))))
 (let (($x68481 (or (and (= (bvsmod ?x84345 (_ bv4 32)) (_ bv0 32)) (and (distinct (bvsmod ?x84345 (_ bv100 32)) (_ bv0 32)) true)) (= (bvsmod ?x84345 (_ bv400 32)) (_ bv0 32)))))
 (let ((?x81400 (ite (= ?x34027 (_ bv2 32)) (ite $x68481 (_ bv29 32) (_ bv28 32)) ?x5420)))
 (let ((?x85715 (ite (bvsgt (_ bv1 32) ?x18939) (_ bv1 32) (ite (bvsgt ?x18939 ?x81400) ?x81400 ?x18939))))
 (let ((?x9595 (ite (bvsgt (_ bv1 32) ?x85715) (_ bv1 32) (ite (bvsgt ?x85715 ?x81400) ?x81400 ?x85715))))
 (let ((?x74543 (ite (= (_ bv2 32) ?x34027) (ite $x68481 (_ bv31 32) (_ bv31 32)) (ite (= (_ bv1 32) ?x34027) (ite $x68481 (_ bv0 32) (_ bv0 32)) (_ bv0 32)))))
 (let ((?x88714 (ite (= (_ bv4 32) ?x34027) (ite $x68481 (_ bv91 32) (_ bv90 32)) (ite (= (_ bv3 32) ?x34027) (ite $x68481 (_ bv60 32) (_ bv59 32)) ?x74543))))
 (let ((?x81933 (ite (= (_ bv6 32) ?x34027) (ite $x68481 (_ bv152 32) (_ bv151 32)) (ite (= (_ bv5 32) ?x34027) (ite $x68481 (_ bv121 32) (_ bv120 32)) ?x88714))))
 (let ((?x8440 (ite (= (_ bv8 32) ?x34027) (ite $x68481 (_ bv213 32) (_ bv212 32)) (ite (= (_ bv7 32) ?x34027) (ite $x68481 (_ bv182 32) (_ bv181 32)) ?x81933))))
 (let ((?x10294 (ite (= (_ bv10 32) ?x34027) (ite $x68481 (_ bv274 32) (_ bv273 32)) (ite (= (_ bv9 32) ?x34027) (ite $x68481 (_ bv244 32) (_ bv243 32)) ?x8440))))
 (let ((?x18433 (ite (= (_ bv12 32) ?x34027) (ite $x68481 (_ bv335 32) (_ bv334 32)) (ite (= (_ bv11 32) ?x34027) (ite $x68481 (_ bv305 32) (_ bv304 32)) ?x10294))))
 (let ((?x41630 (bvadd (bvmul (_ bv365 32) (bvsub ?x84345 (_ bv1 32))) (bvsdiv (bvsub ?x84345 (_ bv1 32)) (_ bv4 32)))))
 (let ((?x50949 (bvadd (bvsub ?x41630 (bvsdiv (bvsub ?x84345 (_ bv1 32)) (_ bv100 32))) (bvsdiv (bvsub ?x84345 (_ bv1 32)) (_ bv400 32)))))
 (let ((?x58120 (bvadd (bvadd (bvsub (bvadd (bvadd ?x50949 ?x18433) (bvsub ?x9595 (_ bv1 32))) (_ bv730179 32)) (_ bv0 32)) (_ bv730179 32))))
 (let ((?x62518 (bvsmod ?x58120 (_ bv146097 32))))
 (let ((?x68419 (bvsdiv ?x62518 (_ bv36524 32))))
 (let ((?x38542 (ite (bvsle (_ bv4 32) ?x68419) (_ bv3 32) ?x68419)))
 (let ((?x37236 (bvsub ?x62518 (bvmul ?x38542 (_ bv36524 32)))))
 (let ((?x88145 (bvsmod ?x37236 (_ bv1461 32))))
 (let ((?x70048 (bvsdiv ?x88145 (_ bv365 32))))
 (let ((?x83847 (ite (bvsle (_ bv4 32) ?x70048) (_ bv3 32) ?x70048)))
 (let ((?x29577 (bvadd (bvadd (bvmul (bvsdiv ?x58120 (_ bv146097 32)) (_ bv400 32)) (bvmul ?x38542 (_ bv100 32))) (bvmul (bvsdiv ?x37236 (_ bv1461 32)) (_ bv4 32)))))
 (let ((?x83649 (bvadd (bvadd ?x29577 ?x83847) (_ bv1 32))))
 (let (($x56948 (or (and (= (bvsmod ?x83649 (_ bv4 32)) (_ bv0 32)) (and (distinct (bvsmod ?x83649 (_ bv100 32)) (_ bv0 32)) true)) (= (bvsmod ?x83649 (_ bv400 32)) (_ bv0 32)))))
 (let ((?x32877 (bvsub ?x88145 (bvmul ?x83847 (_ bv365 32)))))
 (let ((?x29106 (ite $x56948 (_ bv31 32) (_ bv31 32))))
 (let (($x45122 (bvsge ?x32877 ?x29106)))
 (let ((?x85020 (ite $x45122 (bvadd (bvsub ?x32877 ?x29106) (_ bv1 32)) (bvadd (bvsub ?x32877 (ite $x56948 (_ bv0 32) (_ bv0 32))) (_ bv1 32)))))
 (let ((?x66523 (ite $x56948 (_ bv60 32) (_ bv59 32))))
 (let (($x11890 (bvsge ?x32877 ?x66523)))
 (let ((?x38735 (ite $x56948 (_ bv91 32) (_ bv90 32))))
 (let (($x12862 (bvsge ?x32877 ?x38735)))
 (let ((?x60580 (ite $x12862 (bvadd (bvsub ?x32877 ?x38735) (_ bv1 32)) (ite $x11890 (bvadd (bvsub ?x32877 ?x66523) (_ bv1 32)) ?x85020))))
 (let ((?x20072 (ite $x56948 (_ bv121 32) (_ bv120 32))))
 (let (($x52061 (bvsge ?x32877 ?x20072)))
 (let ((?x49169 (ite $x56948 (_ bv152 32) (_ bv151 32))))
 (let (($x83613 (bvsge ?x32877 ?x49169)))
 (let ((?x7624 (ite $x83613 (bvadd (bvsub ?x32877 ?x49169) (_ bv1 32)) (ite $x52061 (bvadd (bvsub ?x32877 ?x20072) (_ bv1 32)) ?x60580))))
 (let ((?x36004 (ite $x56948 (_ bv182 32) (_ bv181 32))))
 (let (($x29453 (bvsge ?x32877 ?x36004)))
 (let ((?x71616 (ite $x56948 (_ bv213 32) (_ bv212 32))))
 (let (($x12867 (bvsge ?x32877 ?x71616)))
 (let ((?x38053 (ite $x12867 (bvadd (bvsub ?x32877 ?x71616) (_ bv1 32)) (ite $x29453 (bvadd (bvsub ?x32877 ?x36004) (_ bv1 32)) ?x7624))))
 (let ((?x35297 (ite $x56948 (_ bv244 32) (_ bv243 32))))
 (let (($x26800 (bvsge ?x32877 ?x35297)))
 (let ((?x72345 (ite $x56948 (_ bv274 32) (_ bv273 32))))
 (let (($x58316 (bvsge ?x32877 ?x72345)))
 (let ((?x63237 (ite $x58316 (bvadd (bvsub ?x32877 ?x72345) (_ bv1 32)) (ite $x26800 (bvadd (bvsub ?x32877 ?x35297) (_ bv1 32)) ?x38053))))
 (let ((?x33027 (ite $x56948 (_ bv305 32) (_ bv304 32))))
 (let (($x7102 (bvsge ?x32877 ?x33027)))
 (let ((?x25309 (ite $x56948 (_ bv335 32) (_ bv334 32))))
 (let (($x14929 (bvsge ?x32877 ?x25309)))
 (let ((?x7024 (ite $x14929 (bvadd (bvsub ?x32877 ?x25309) (_ bv1 32)) (ite $x7102 (bvadd (bvsub ?x32877 ?x33027) (_ bv1 32)) ?x63237))))
 (let (($x2020 (= (_ bv0 32) (_ bv0 32))))
 (let ((?x49821 (bvadd (bvsub (ite $x2020 ?x9595 ?x7024) (_ bv1 32)) (_ bv1 32))))
 (let ((?x66843 (ite $x83613 (_ bv6 32) (ite $x52061 (_ bv5 32) (ite $x12862 (_ bv4 32) (ite $x11890 (_ bv3 32) (ite $x45122 (_ bv2 32) (_ bv1 32))))))))
 (let ((?x60458 (ite $x7102 (_ bv11 32) (ite $x58316 (_ bv10 32) (ite $x26800 (_ bv9 32) (ite $x12867 (_ bv8 32) (ite $x29453 (_ bv7 32) ?x66843)))))))
 (let ((?x87185 (bvadd (bvmul (ite $x2020 ?x84345 ?x83649) (_ bv12 32)) (ite $x2020 ?x34027 (ite $x14929 (_ bv12 32) ?x60458)))))
 (let ((?x70102 (bvadd (bvadd (bvsub ?x87185 (_ bv24003 32)) (_ bv0 32)) (_ bv24003 32))))
 (let ((?x34596 (bvsdiv (bvsub ?x70102 (_ bv1 32)) (_ bv12 32))))
 (let ((?x57682 (bvsub ?x70102 (bvmul ?x34596 (_ bv12 32)))))
 (let ((?x30911 (ite (or (= ?x57682 (_ bv4 32)) (= ?x57682 (_ bv6 32)) (= ?x57682 (_ bv9 32)) (= ?x57682 (_ bv11 32))) (_ bv30 32) (_ bv31 32))))
 (let (($x70886 (or (and (= (bvsmod ?x34596 (_ bv4 32)) (_ bv0 32)) (and (distinct (bvsmod ?x34596 (_ bv100 32)) (_ bv0 32)) true)) (= (bvsmod ?x34596 (_ bv400 32)) (_ bv0 32)))))
 (let ((?x75689 (ite (= ?x57682 (_ bv2 32)) (ite $x70886 (_ bv29 32) (_ bv28 32)) ?x30911)))
 (let ((?x31589 (ite (bvsgt (_ bv1 32) ?x49821) (_ bv1 32) (ite (bvsgt ?x49821 ?x75689) ?x75689 ?x49821))))
 (let ((?x50751 (ite (bvsgt (_ bv1 32) ?x31589) (_ bv1 32) (ite (bvsgt ?x31589 ?x75689) ?x75689 ?x31589))))
 (let ((?x72947 (ite (= (_ bv2 32) ?x57682) (ite $x70886 (_ bv31 32) (_ bv31 32)) (ite (= (_ bv1 32) ?x57682) (ite $x70886 (_ bv0 32) (_ bv0 32)) (_ bv0 32)))))
 (let ((?x19091 (ite (= (_ bv4 32) ?x57682) (ite $x70886 (_ bv91 32) (_ bv90 32)) (ite (= (_ bv3 32) ?x57682) (ite $x70886 (_ bv60 32) (_ bv59 32)) ?x72947))))
 (let ((?x60380 (ite (= (_ bv6 32) ?x57682) (ite $x70886 (_ bv152 32) (_ bv151 32)) (ite (= (_ bv5 32) ?x57682) (ite $x70886 (_ bv121 32) (_ bv120 32)) ?x19091))))
 (let ((?x47798 (ite (= (_ bv8 32) ?x57682) (ite $x70886 (_ bv213 32) (_ bv212 32)) (ite (= (_ bv7 32) ?x57682) (ite $x70886 (_ bv182 32) (_ bv181 32)) ?x60380))))
 (let ((?x76486 (ite (= (_ bv10 32) ?x57682) (ite $x70886 (_ bv274 32) (_ bv273 32)) (ite (= (_ bv9 32) ?x57682) (ite $x70886 (_ bv244 32) (_ bv243 32)) ?x47798))))
 (let ((?x80118 (ite (= (_ bv12 32) ?x57682) (ite $x70886 (_ bv335 32) (_ bv334 32)) (ite (= (_ bv11 32) ?x57682) (ite $x70886 (_ bv305 32) (_ bv304 32)) ?x76486))))
 (let ((?x6221 (bvadd (bvmul (_ bv365 32) (bvsub ?x34596 (_ bv1 32))) (bvsdiv (bvsub ?x34596 (_ bv1 32)) (_ bv4 32)))))
 (let ((?x38449 (bvadd (bvsub ?x6221 (bvsdiv (bvsub ?x34596 (_ bv1 32)) (_ bv100 32))) (bvsdiv (bvsub ?x34596 (_ bv1 32)) (_ bv400 32)))))
 (let ((?x19386 (bvadd (bvadd (bvsub (bvadd (bvadd ?x38449 ?x80118) (bvsub ?x50751 (_ bv1 32))) (_ bv730179 32)) (_ bv15 32)) (_ bv730179 32))))
 (let ((?x68399 (bvsmod ?x19386 (_ bv146097 32))))
 (let ((?x61161 (bvsdiv ?x68399 (_ bv36524 32))))
 (let ((?x18831 (ite (bvsle (_ bv4 32) ?x61161) (_ bv3 32) ?x61161)))
 (let ((?x22050 (bvsub ?x68399 (bvmul ?x18831 (_ bv36524 32)))))
 (let ((?x39876 (bvsmod ?x22050 (_ bv1461 32))))
 (let ((?x83810 (bvsdiv ?x39876 (_ bv365 32))))
 (let ((?x83934 (ite (bvsle (_ bv4 32) ?x83810) (_ bv3 32) ?x83810)))
 (let ((?x13744 (bvadd (bvadd (bvmul (bvsdiv ?x19386 (_ bv146097 32)) (_ bv400 32)) (bvmul ?x18831 (_ bv100 32))) (bvmul (bvsdiv ?x22050 (_ bv1461 32)) (_ bv4 32)))))
 (let ((?x77527 (bvadd (bvadd ?x13744 ?x83934) (_ bv1 32))))
 (let (($x37391 (or (and (= (bvsmod ?x77527 (_ bv4 32)) (_ bv0 32)) (and (distinct (bvsmod ?x77527 (_ bv100 32)) (_ bv0 32)) true)) (= (bvsmod ?x77527 (_ bv400 32)) (_ bv0 32)))))
 (let ((?x23885 (bvsub ?x39876 (bvmul ?x83934 (_ bv365 32)))))
 (let ((?x22908 (ite $x37391 (_ bv31 32) (_ bv31 32))))
 (let (($x20145 (bvsge ?x23885 ?x22908)))
 (let ((?x23928 (ite $x20145 (bvadd (bvsub ?x23885 ?x22908) (_ bv1 32)) (bvadd (bvsub ?x23885 (ite $x37391 (_ bv0 32) (_ bv0 32))) (_ bv1 32)))))
 (let ((?x74202 (ite $x37391 (_ bv60 32) (_ bv59 32))))
 (let (($x24102 (bvsge ?x23885 ?x74202)))
 (let ((?x77430 (ite $x37391 (_ bv91 32) (_ bv90 32))))
 (let (($x9246 (bvsge ?x23885 ?x77430)))
 (let ((?x27856 (ite $x9246 (bvadd (bvsub ?x23885 ?x77430) (_ bv1 32)) (ite $x24102 (bvadd (bvsub ?x23885 ?x74202) (_ bv1 32)) ?x23928))))
 (let ((?x61512 (ite $x37391 (_ bv121 32) (_ bv120 32))))
 (let (($x21541 (bvsge ?x23885 ?x61512)))
 (let ((?x13880 (ite $x37391 (_ bv152 32) (_ bv151 32))))
 (let (($x12998 (bvsge ?x23885 ?x13880)))
 (let ((?x77957 (ite $x12998 (bvadd (bvsub ?x23885 ?x13880) (_ bv1 32)) (ite $x21541 (bvadd (bvsub ?x23885 ?x61512) (_ bv1 32)) ?x27856))))
 (let ((?x65743 (ite $x37391 (_ bv182 32) (_ bv181 32))))
 (let (($x72809 (bvsge ?x23885 ?x65743)))
 (let ((?x43165 (ite $x37391 (_ bv213 32) (_ bv212 32))))
 (let (($x24605 (bvsge ?x23885 ?x43165)))
 (let ((?x6302 (ite $x24605 (bvadd (bvsub ?x23885 ?x43165) (_ bv1 32)) (ite $x72809 (bvadd (bvsub ?x23885 ?x65743) (_ bv1 32)) ?x77957))))
 (let ((?x23303 (ite $x37391 (_ bv244 32) (_ bv243 32))))
 (let (($x60209 (bvsge ?x23885 ?x23303)))
 (let ((?x61497 (ite $x37391 (_ bv274 32) (_ bv273 32))))
 (let (($x85694 (bvsge ?x23885 ?x61497)))
 (let ((?x89328 (ite $x85694 (bvadd (bvsub ?x23885 ?x61497) (_ bv1 32)) (ite $x60209 (bvadd (bvsub ?x23885 ?x23303) (_ bv1 32)) ?x6302))))
 (let ((?x87072 (ite $x37391 (_ bv305 32) (_ bv304 32))))
 (let (($x87573 (bvsge ?x23885 ?x87072)))
 (let ((?x70184 (ite $x37391 (_ bv335 32) (_ bv334 32))))
 (let (($x20850 (bvsge ?x23885 ?x70184)))
 (let ((?x39591 (ite $x20850 (bvadd (bvsub ?x23885 ?x70184) (_ bv1 32)) (ite $x87573 (bvadd (bvsub ?x23885 ?x87072) (_ bv1 32)) ?x89328))))
 (let (($x84171 (= (_ bv15 32) (_ bv0 32))))
 (let ((?x43810 (ite $x12998 (_ bv6 32) (ite $x21541 (_ bv5 32) (ite $x9246 (_ bv4 32) (ite $x24102 (_ bv3 32) (ite $x20145 (_ bv2 32) (_ bv1 32))))))))
 (let ((?x13617 (ite $x87573 (_ bv11 32) (ite $x85694 (_ bv10 32) (ite $x60209 (_ bv9 32) (ite $x24605 (_ bv8 32) (ite $x72809 (_ bv7 32) ?x43810)))))))
 (let ((?x67539 (ite $x20850 (_ bv12 32) ?x13617)))
 (let ((?x27579 (bvsub (bvadd (bvmul (ite $x84171 ?x34596 ?x77527) (_ bv12 32)) (ite $x84171 ?x57682 ?x67539)) (_ bv24003 32))))
 (and (= ?x27579 y_months) (= (bvsub (ite $x84171 ?x50751 ?x39591) (_ bv1 32)) y_beta))))))))))))))))))))))))))))))))))))))))))))))))))))))))))))))))))))))))))))))))))))))))))))))))))))))))))))))))))))))))))))))
(assert
 (let (($x34769 (bvsle (_ bv0 32) y_beta)))
(or (bvsgt y_months (bvsub (bvadd (bvmul (_ bv2023 32) (_ bv12 32)) (_ bv6 32)) (_ bv24003 32))) (and (= y_months (bvsub (bvadd (bvmul (_ bv2023 32) (_ bv12 32)) (_ bv6 32)) (_ bv24003 32))) $x34769))))
(check-sat)
